% File represents an instance of a Composite Structure problem to be solved by a CP framework
% Created on 2025-03-26 10:41:26.950
T = 50;
n = 16;
m = 24;
edges = [(1, 2),
(5, 6),
(10, 9),
(13, 14),
(2, 3),
(6, 7),
(10, 11),
(14, 15),
(4, 3),
(7, 8),
(11, 12),
(16, 15),
(5, 1),
(5, 9),
(9, 13),
(6, 2),
(10, 6),
(10, 14),
(7, 3),
(11, 7),
(11, 15),
(4, 8),
(12, 8),
(16, 12)];
counts = [|10, 4, 10, 20,
|10, 4, 10, 14,
|8, 2, 8, 14,
|8, 2, 8, 16,
|12, 6, 12, 20,
|12, 4, 12, 16,
|10, 4, 10, 14,
|8, 2, 8, 14,
|12, 6, 12, 16,
|12, 8, 12, 16,
|12, 4, 12, 14,
|10, 4, 10, 14,
|12, 6, 12, 14,
|12, 6, 12, 12,
|12, 2, 12, 10,
|12, 4, 12, 14|];
